unsat
(forall ((A (_ BitVec 1))
         (B (_ BitVec 1))
         (C (_ BitVec 1))
         (D (_ BitVec 1))
         (E (_ BitVec 1))
         (F (_ BitVec 1))
         (G (_ BitVec 1))
         (H (_ BitVec 1))
         (I (_ BitVec 11))
         (J (_ BitVec 1))
         (K (_ BitVec 1))
         (L (_ BitVec 1))
         (M (_ BitVec 1))
         (N (_ BitVec 1))
         (O (_ BitVec 1))
         (P (_ BitVec 1))
         (Q (_ BitVec 1))
         (R (_ BitVec 1))
         (S (_ BitVec 1))
         (T (_ BitVec 12))
         (U (_ BitVec 1))
         (V (_ BitVec 11))
         (W (_ BitVec 11))
         (X (_ BitVec 1))
         (Y (_ BitVec 1))
         (Z (_ BitVec 1))
         (A1 (_ BitVec 1))
         (B1 (_ BitVec 32))
         (C1 (_ BitVec 1))
         (D1 (_ BitVec 1))
         (E1 (_ BitVec 1))
         (F1 (_ BitVec 12))
         (G1 (_ BitVec 1))
         (H1 (_ BitVec 32))
         (I1 (_ BitVec 1))
         (J1 (_ BitVec 1))
         (K1 (_ BitVec 12))
         (L1 (_ BitVec 1))
         (M1 (_ BitVec 12))
         (N1 (_ BitVec 12))
         (O1 (_ BitVec 12))
         (P1 (_ BitVec 3))
         (Q1 (_ BitVec 3))
         (R1 (_ BitVec 12))
         (S1 (_ BitVec 1))
         (T1 (_ BitVec 1))
         (U1 (_ BitVec 1))
         (V1 (_ BitVec 1))
         (W1 (_ BitVec 3))
         (X1 (_ BitVec 1))
         (Y1 (_ BitVec 3))
         (Z1 (_ BitVec 1))
         (A2 (_ BitVec 12))
         (B2 (_ BitVec 1))
         (C2 (_ BitVec 1))
         (D2 (_ BitVec 1))
         (E2 (_ BitVec 1))
         (F2 (_ BitVec 12))
         (G2 (_ BitVec 1))
         (H2 (_ BitVec 1))
         (I2 (_ BitVec 4))
         (J2 (_ BitVec 1))
         (K2 (_ BitVec 1))
         (L2 (_ BitVec 1))
         (M2 (_ BitVec 12))
         (N2 (_ BitVec 12))
         (O2 (_ BitVec 1))
         (P2 (_ BitVec 1))
         (Q2 (_ BitVec 1))
         (R2 (_ BitVec 3))
         (S2 (_ BitVec 1))
         (T2 (_ BitVec 1))
         (U2 (_ BitVec 1))
         (V2 (_ BitVec 1))
         (W2 (_ BitVec 1))
         (X2 (_ BitVec 1))
         (Y2 (_ BitVec 11))
         (Z2 (_ BitVec 1))
         (A3 (_ BitVec 1))
         (B3 (_ BitVec 11))
         (C3 (_ BitVec 1))
         (D3 (_ BitVec 1))
         (E3 (_ BitVec 1))
         (F3 (_ BitVec 1))
         (G3 (_ BitVec 1))
         (H3 (_ BitVec 1))
         (I3 (_ BitVec 1))
         (J3 (_ BitVec 1))
         (K3 (_ BitVec 11))
         (L3 (_ BitVec 12))
         (M3 (_ BitVec 1))
         (N3 (_ BitVec 1))
         (O3 (_ BitVec 11))
         (P3 (_ BitVec 1))
         (Q3 (_ BitVec 1))
         (R3 (_ BitVec 1))
         (S3 (_ BitVec 11))
         (T3 (_ BitVec 1))
         (U3 (_ BitVec 1))
         (V3 (_ BitVec 11))
         (W3 (_ BitVec 1))
         (X3 (_ BitVec 1))
         (Y3 (_ BitVec 1))
         (Z3 (_ BitVec 1))
         (A4 (_ BitVec 1))
         (B4 (_ BitVec 24))
         (C4 (_ BitVec 1))
         (D4 (_ BitVec 1))
         (E4 (_ BitVec 1))
         (F4 (_ BitVec 12))
         (G4 (_ BitVec 1))
         (H4 (_ BitVec 1))
         (I4 (_ BitVec 11))
         (J4 (_ BitVec 3))
         (K4 (_ BitVec 1))
         (L4 (_ BitVec 32))
         (M4 (_ BitVec 1))
         (N4 (_ BitVec 1))
         (O4 (_ BitVec 1))
         (P4 (_ BitVec 1))
         (Q4 (_ BitVec 4))
         (R4 (_ BitVec 3))
         (S4 (_ BitVec 1))
         (T4 (_ BitVec 1))
         (U4 (_ BitVec 1))
         (V4 (_ BitVec 1))
         (W4 (_ BitVec 1))
         (X4 (_ BitVec 12))
         (Y4 (_ BitVec 1))
         (Z4 (_ BitVec 1))
         (A5 (_ BitVec 1))
         (B5 (_ BitVec 24))
         (C5 (_ BitVec 1))
         (D5 (_ BitVec 1))
         (E5 (_ BitVec 1))
         (F5 (_ BitVec 1))
         (G5 (_ BitVec 1))
         (H5 (_ BitVec 1))
         (I5 (_ BitVec 12))
         (J5 (_ BitVec 1))
         (K5 (_ BitVec 11))
         (L5 (_ BitVec 11))
         (M5 (_ BitVec 1))
         (N5 (_ BitVec 1))
         (O5 (_ BitVec 1))
         (P5 (_ BitVec 1))
         (Q5 (_ BitVec 1))
         (R5 (_ BitVec 1))
         (S5 (_ BitVec 1))
         (T5 (_ BitVec 1))
         (U5 (_ BitVec 1))
         (V5 (_ BitVec 1))
         (W5 (_ BitVec 1))
         (X5 (_ BitVec 3))
         (Y5 (_ BitVec 1))
         (Z5 (_ BitVec 1))
         (A6 (_ BitVec 1))
         (B6 (_ BitVec 1))
         (C6 (_ BitVec 4))
         (D6 (_ BitVec 1))
         (E6 (_ BitVec 4))
         (F6 (_ BitVec 1))
         (G6 (_ BitVec 1))
         (H6 (_ BitVec 1))
         (I6 (_ BitVec 12))
         (J6 (_ BitVec 1))
         (K6 (_ BitVec 1))
         (L6 (_ BitVec 32))
         (M6 (_ BitVec 1))
         (N6 (_ BitVec 1))
         (O6 (_ BitVec 1))
         (P6 (_ BitVec 1))
         (Q6 (_ BitVec 24))
         (R6 (_ BitVec 12))
         (S6 (_ BitVec 1))
         (T6 (_ BitVec 11))
         (U6 (_ BitVec 1)))
  (! (let ((a!1 (ite (or (not (= P6 #b1)) (not (= S2 #b0))) B3 Y2))
           (a!2 (ite (or (= J6 #b1) (= R3 #b0)) Y2 (bvadd #b00000000001 Y2)))
           (a!4 (ite (or (= H5 #b0) (= J6 #b1)) B3 (bvadd #b00000000001 B3)))
           (a!5 (not (ite (= F3 #b0) (= L1 #b1) (= U3 J6))))
           (a!6 (or (= C3 #b0) (= ((_ extract 2 2) Y1) #b1) (= S4 #b1)))
           (a!8 (or (= J6 #b1)
                    (= ((_ extract 2 2) Y1) #b1)
                    (ite (= J6 #b1) (= H5 #b0) (or (= H5 #b0) (= C1 #b1)))))
           (a!13 (or (not (= A1 #b0))
                     (bvule (ite (= J6 #b1) Y2 (bvadd #b00000000001 Y2))
                            #b10100000000)))
           (a!15 (ite (= J6 #b1) (= H5 #b1) (not (or (= H5 #b0) (= C1 #b1))))))
     (let ((a!3 (ite (or (= S4 #b1) (= ((_ extract 2 2) R4) #b1))
                     #b00000000000
                     a!2))
           (a!7 (or (= R3 #b0)
                    ((_ bit2bool 0) M4)
                    (= J6 #b1)
                    a!5
                    (bvule (ite a!6 #b00000000000 (bvadd #b00000000001 B3))
                           #b10100000000)))
           (a!9 (bvadd #b00000000001
                       (ite (= ((_ extract 2 2) Y1) #b1) #b00000000000 a!4)))
           (a!12 (bvule (ite (= ((_ extract 2 2) Y1) #b1) #b00000000000 a!4)
                        #b10100000000))
           (a!14 (ite (or (= ((_ extract 2 2) Y1) #b1) (= S4 #b1))
                      #b00000000000
                      a!4)))
     (let ((a!10 (ite a!8
                      (ite (= ((_ extract 2 2) Y1) #b1) #b00000000000 a!4)
                      a!9)))
     (let ((a!11 (bvule (ite (= ((_ extract 1 1) Y1) #b1) #b00000000000 a!10)
                        #b10100000000)))
     (let ((a!16 (and (or (= H5 #b0)
                          (bvule (bvadd #b00000000001 B3) #b10100000000))
                      (bvule (ite (= S2 #b0) Y2 B3) #b10100000000)
                      (not (= P3 #b0))
                      (or (not (= S2 #b0)) (= F3 #b1))
                      (or (not (= S4 #b0))
                          (= N6 #b1)
                          (and (= H3 #b0) (= M #b0)))
                      (or (= F3 #b0) (= A5 P))
                      (or ((_ bit2bool 0) P) (not (= E4 #b0)) (= W2 #b0))
                      (or ((_ bit2bool 0) Y4) (not (= F3 #b1)) (not (= H3 #b0)))
                      (or (not ((_ bit2bool 10) Y2)) (= H3 #b0))
                      (or (not ((_ bit2bool 10) B3)) (not (= T2 #b0)))
                      (or (not ((_ bit2bool 10) B3)) (not (= N3 #b0)))
                      (or ((_ bit2bool 0) A5) (not (= E4 #b0)))
                      (or (not ((_ bit2bool 10) B3)) (not (= K #b1)))
                      (or (not (= S4 #b1)) (= Q3 #b0))
                      (or (bvule a!1 #b10100000000) (not (= B3 a!1)))
                      (or (not (= V2 #b0)) (not (= F3 #b0)))
                      (or ((_ bit2bool 0) S2)
                          ((_ bit2bool 0) P2)
                          (not (= H3 #b0)))
                      (not (= R4 #b011))
                      (not (= Y1 #b011))
                      (or (not (= H2 #b1)) (not (= S2 #b0)))
                      (bvule a!3 #b10100000000)
                      (or (= S2 H2) (= T2 #b0))
                      (or (not (= H2 #b0)) (bvule Y2 #b10100000000))
                      (or (not (= Z2 #b0)) (bvule a!4 #b10100000000))
                      a!7
                      (or (= ((_ extract 2 2) Y1) #b1)
                          ((_ bit2bool 0) M4)
                          (bvule a!4 #b10100000000)
                          a!5)
                      (or (not (= Y #b1)) (not (= C3 #b1)))
                      (or (= K3 I4) (not (= Y #b1)))
                      (or (not (= U3 J6)) a!11)
                      (or a!5 (bvule (ite a!6 #b00000000000 a!4) #b10100000000))
                      (or ((_ bit2bool 2) R4)
                          (not (= H2 #b0))
                          (bvule a!2 #b10100000000))
                      (or (= A3 #b0) (not (= C3 #b1)) a!12)
                      (or (not (= Z2 #b0)) a!5 a!12)
                      (or a!12 (not (= J6 U3)))
                      a!13
                      (or a!5 (bvule a!14 #b10100000000) (not a!15))
                      (or (= A1 #b1)
                          (bvule (bvadd #b00000000010 Y2) #b10100000000))
                      (or (not (= H3 #b0))
                          (= C1 #b1)
                          (bvule (bvadd #b00000000010 B3) #b10100000000))
                      (or (= R3 #b0)
                          (not (= S2 #b0))
                          (bvule (bvadd #b00000000001 Y2) #b10100000000)))))
       (= (INV!slice!1 A
                       B
                       C
                       D
                       E
                       F
                       G
                       H
                       I
                       J
                       K
                       L
                       M
                       N
                       O
                       P
                       Q
                       R
                       S
                       T
                       U
                       V
                       W
                       X
                       Y
                       Z
                       A1
                       B1
                       C1
                       D1
                       E1
                       F1
                       G1
                       H1
                       I1
                       J1
                       K1
                       L1
                       M1
                       N1
                       O1
                       P1
                       Q1
                       R1
                       S1
                       T1
                       U1
                       V1
                       W1
                       X1
                       Y1
                       Z1
                       A2
                       B2
                       C2
                       D2
                       E2
                       F2
                       G2
                       H2
                       I2
                       J2
                       K2
                       L2
                       M2
                       N2
                       O2
                       P2
                       Q2
                       R2
                       S2
                       T2
                       U2
                       V2
                       W2
                       X2
                       Y2
                       Z2
                       A3
                       B3
                       C3
                       D3
                       E3
                       F3
                       G3
                       H3
                       I3
                       J3
                       K3
                       L3
                       M3
                       N3
                       O3
                       P3
                       Q3
                       R3
                       S3
                       T3
                       U3
                       V3
                       W3
                       X3
                       Y3
                       Z3
                       A4
                       B4
                       C4
                       D4
                       E4
                       F4
                       G4
                       H4
                       I4
                       J4
                       K4
                       L4
                       M4
                       N4
                       O4
                       P4
                       Q4
                       R4
                       S4
                       T4
                       U4
                       V4
                       W4
                       X4
                       Y4
                       Z4
                       A5
                       B5
                       C5
                       D5
                       E5
                       F5
                       G5
                       H5
                       I5
                       J5
                       K5
                       L5
                       M5
                       N5
                       O5
                       P5
                       Q5
                       R5
                       S5
                       T5
                       U5
                       V5
                       W5
                       X5
                       Y5
                       Z5
                       A6
                       B6
                       C6
                       D6
                       E6
                       F6
                       G6
                       H6
                       I6
                       J6
                       K6
                       L6
                       M6
                       N6
                       O6
                       P6
                       Q6
                       R6
                       S6
                       T6
                       U6)
          a!16))))))
     :weight 0))
